54060
50, 20, 7, 40, 43, 3, 6, 28, 55, 26, 30, 4, 18, 12, 47, 54, 53, 34, 9, 14, 2, 42, 33, 1, 27, 31, 25, 11, 45, 52, 15, 36, 46, 39, 16, 10, 22, 29, 21, 23, 17, 48, 49, 19, 44, 38, 8, 32, 41, 13, 51, 37, 5, 35, 24
